language ESSENCE' 1.0
letting AssignmentMatrix be [[0, 0, 0, 0, 0, 1, 1, 1], 
[0, 0, 0, 1, 1, 0, 0, 0], 
[0, 0, 0, 0, 0, 0, 0, 0], 
[0, 0, 1, 0, 0, 0, 0, 0], 
[1, 1, 0, 0, 0, 0, 0, 0]]
letting CPU be [4, 4, 4, 2, 2, 2, 2, 2]
letting Memory be [30500, 30500, 30500, 3750, 3750, 3750, 3750, 3750]
letting Price be [379, 379, 379, 128, 128, 128, 128, 128]
letting Storage be [1000, 1000, 1000, 2000, 2000, 2000, 2000, 2000]
letting VMType be [15, 15, 15, 17, 17, 17, 17, 17]
